(set-logic HORN)
(declare-fun state (Int Int (Array Int Int) Int Int Bool Bool Bool Int) Bool)
(assert (forall ((|main@%tmp8.i_0_7| Int) (|.y.9| Int) (|main@%shadow.mem.2_0_3| (Array Int Int)) (|main@%x.0.i_0_1| Int) (|main@%tmp2.i_0_7| Int) (|.loc.10| Bool) (|.loc.11| Bool) (|.loc.12| Bool) (|main@%tmp45.i_0_0| Int) (|.loc.19| Bool) (|.loc.20| Bool) (|.loc.18| Bool) (|.y.17| Int) (|.y.16| Int) (|.y.13| Int) (|.y.15| (Array Int Int)) (|.y.14| Int) (|.xtv.1| Int)) (=> (and (and (not .loc.10) (not .loc.11)) (not .loc.12)) (state |main@%tmp8.i_0_7| |.y.9| |main@%shadow.mem.2_0_3| |main@%x.0.i_0_1| |main@%tmp2.i_0_7| |.loc.10| |.loc.11| |.loc.12| |main@%tmp45.i_0_0|))))
(assert (forall ((|main@%tmp8.i_0_7| Int) (|.y.9| Int) (|main@%shadow.mem.2_0_3| (Array Int Int)) (|main@%x.0.i_0_1| Int) (|main@%tmp2.i_0_7| Int) (|.loc.10| Bool) (|.loc.11| Bool) (|.loc.12| Bool) (|main@%tmp45.i_0_0| Int) (|.loc.19| Bool) (|.loc.20| Bool) (|.loc.18| Bool) (|.y.17| Int) (|.y.16| Int) (|.y.13| Int) (|.y.15| (Array Int Int)) (|.y.14| Int) (|.xtv.1| Int)) (=> (and (state |main@%tmp8.i_0_7| |.y.9| |main@%shadow.mem.2_0_3| |main@%x.0.i_0_1| |main@%tmp2.i_0_7| |.loc.10| |.loc.11| |.loc.12| |main@%tmp45.i_0_0|) (let ((.def_19 (not .loc.10))) (let ((.def_20 (not .loc.11))) (let ((.def_22 (not .loc.12))) (let ((.def_25 (not .loc.19))) (let ((.def_30 (= (select main@%shadow.mem.2_0_3 main@%tmp45.i_0_0) 44))) (let ((.def_44 (<= main@%tmp8.i_0_7 0))) (let ((.def_45 (or (not (<= main@%tmp45.i_0_0 0)) .def_44))) (let ((.def_47 (not .def_44))) (let ((.def_48 (and (and (and (not (<= main@%tmp2.i_0_7 main@%x.0.i_0_1)) (= (+ main@%tmp8.i_0_7 (+ main@%x.0.i_0_1 (* (- 1) main@%tmp45.i_0_0))) 0)) .def_45) .def_47))) (let ((.def_60 (not .loc.18))) (let ((.def_64 (<= main@%x.0.i_0_1 .y.9))) (let ((.def_67 (= main@%tmp8.i_0_7 .y.13))) (let ((.def_70 (= main@%shadow.mem.2_0_3 .y.15))) (let ((.def_96 (not .loc.20))) (let ((.def_99 (= .y.14 0))) (let ((.def_101 (= main@%x.0.i_0_1 .y.16))) (let ((.def_106 (and .def_45 .def_47))) (let ((.def_107 (and .loc.10 .def_106))) (let ((.def_117 (= (+ .y.9 (* (- 1) .y.14)) (- 1)))) (let ((.def_122 (= (+ main@%tmp8.i_0_7 (+ .y.9 (* (- 1) main@%tmp45.i_0_0))) 0))) (let ((.def_124 (not .def_64))) (or (or (or (or (or (or (and (and .def_25 .loc.20) (or (or (and (and .def_20 (and .def_19 (and .loc.12 (and (not .def_30) .def_48)))) .loc.18) (and (= main@%x.0.i_0_1 .y.17) (and (and (and (and (= .y.16 0) (and .def_22 (and (and .loc.10 .loc.11) .def_60))) .def_64) .def_67) .def_70))) (and (= main@%tmp2.i_0_7 .y.17) (and (= (+ main@%x.0.i_0_1 (* (- 1) .y.16)) (- 1)) (and .def_70 (and .def_67 (and .def_60 (and .def_20 (and .def_19 (and .loc.12 (and .def_30 .def_48))))))))))) (and (and (and (and .def_70 (and .def_67 (and .def_64 (and .def_22 (and .loc.19 (and .loc.18 (and .loc.11 .def_19))))))) .def_96) .def_99) .def_101)) (and (and (and (= .y.15 (store main@%shadow.mem.2_0_3 main@%tmp45.i_0_0 44)) (and (and .def_101 (and .def_96 (and .def_67 (and .def_22 (and .loc.19 (and .loc.18 (and .loc.11 .def_107))))))) .def_117)) .def_122) .def_124)) (and .def_101 (and .def_99 (and .def_96 (and .def_70 (and .def_67 (and .def_64 (and .def_22 (and .def_60 (and .loc.19 (and .loc.10 .def_20))))))))))) (and (= .y.15 (store main@%shadow.mem.2_0_3 main@%tmp45.i_0_0 43)) (and .def_124 (and .def_122 (and .def_117 (and .def_101 (and .def_96 (and .def_67 (and .def_22 (and .def_60 (and .loc.19 (and .def_19 (and .loc.11 .def_106))))))))))))) (and (not (<= .y.16 0)) (and (not (<= .y.13 0)) (and .def_99 (and .def_96 (and .def_22 (and .def_25 (and (and .def_19 .def_20) .loc.18)))))))) (and (= .y.15 (store main@%shadow.mem.2_0_3 main@%tmp45.i_0_0 42)) (and .def_124 (and .def_122 (and .def_117 (and .def_101 (and .def_96 (and .def_67 (and .def_22 (and .def_25 (and .loc.18 (and .def_20 .def_107)))))))))))))))))))))))))))))))))) (state |.y.13| |.y.14| |.y.15| |.y.16| |.y.17| |.loc.18| |.loc.19| |.loc.20| |.xtv.1|))))
(assert (forall ((|main@%tmp8.i_0_7| Int) (|.y.9| Int) (|main@%shadow.mem.2_0_3| (Array Int Int)) (|main@%x.0.i_0_1| Int) (|main@%tmp2.i_0_7| Int) (|.loc.10| Bool) (|.loc.11| Bool) (|.loc.12| Bool) (|main@%tmp45.i_0_0| Int) (|.loc.19| Bool) (|.loc.20| Bool) (|.loc.18| Bool) (|.y.17| Int) (|.y.16| Int) (|.y.13| Int) (|.y.15| (Array Int Int)) (|.y.14| Int) (|.xtv.1| Int)) (=> (state |main@%tmp8.i_0_7| |.y.9| |main@%shadow.mem.2_0_3| |main@%x.0.i_0_1| |main@%tmp2.i_0_7| |.loc.10| |.loc.11| |.loc.12| |main@%tmp45.i_0_0|) (not (and .loc.12 (and .loc.10 (not .loc.11)))))))
(check-sat)
